RAW/XX/fspd-long/X-n101-k25.vrp_seed-4.out
19781	24.977	267.367
