RAW/XX/fspd-long/X-n101-k25.vrp_seed-4.sol
Route #1: 15 22 41 20 35
Route #2: 17 8
Route #3: 23 19 61 100 21
Route #4: 12 5 46 24 31 32
Route #5: 93 75 79 50
Route #6: 88 67 60 57 72 82 77
Route #7: 56 94 96 59 40
Route #8: 80 34 64 3 87 29 36 37 6 14
Route #9: 51 83 97
Route #10: 66 68 86 9 92 54
Route #11: 44 63 28 42 78 65 10 25
Route #12: 89 98 99 62 71 81
Route #13: 58 18 4 13 74 69 84
Route #14: 27 38 47 26 48 43 45 2 49 7 39
Route #15: 91 52 11 85 30 33 53 73 95
Route #16: 1 70 16 55 76 90
Cost 19781.000000